
Gurobi 7.5.2 (linux64) logging started Sun Jan  3 00:15:26 2021

Changed value of parameter LogFile to /home/aniket/python_scripts/Plasmids-Optimization/exp/2019-05-07__iterative_MILP_unweighted/feasibility_check/sample_56/1.1.1/nplasmids_1/MILP/m.log
   Prev: gurobi.log  Default: 
Changed value of parameter TimeLimit to 2400.0
   Prev: 1e+100  Min: 0.0  Max: 1e+100  Default: 1e+100
Optimize a model with 6665 rows, 3046 columns and 12091 nonzeros
Variable types: 1136 continuous, 1910 integer (775 binary)
Coefficient statistics:
  Matrix range     [1e-02, 6e+05]
  Objective range  [5e-03, 1e+00]
  Bounds range     [1e+00, 1e+00]
  RHS range        [5e-01, 2e+05]
Presolve removed 5685 rows and 2306 columns
Presolve time: 0.02s
Presolved: 980 rows, 740 columns, 2864 nonzeros
Variable types: 152 continuous, 588 integer (431 binary)

Root relaxation: infeasible, 565 iterations, 0.01 seconds

    Nodes    |    Current Node    |     Objective Bounds      |     Work
 Expl Unexpl |  Obj  Depth IntInf | Incumbent    BestBd   Gap | It/Node Time

     0     0 infeasible    0               - infeasible      -     -    0s

Explored 0 nodes (565 simplex iterations) in 0.04 seconds
Thread count was 4 (of 4 available processors)

Solution count 0

Model is infeasible or unbounded
Best objective -, best bound -, gap -
Presolve removed 6009 rows and 2470 columns
Presolve time: 0.01s
Presolved: 656 rows, 576 columns, 2036 nonzeros
Variable types: 0 continuous, 576 integer (419 binary)

Root relaxation: infeasible, 364 iterations, 0.00 seconds

    Nodes    |    Current Node    |     Objective Bounds      |     Work
 Expl Unexpl |  Obj  Depth IntInf | Incumbent    BestBd   Gap | It/Node Time

     0     0 infeasible    0               - infeasible      -     -    0s

Explored 0 nodes (364 simplex iterations) in 0.03 seconds
Thread count was 4 (of 4 available processors)

Solution count 0

Model is infeasible
Best objective -, best bound -, gap -

Computing Irreducible Inconsistent Subsystem (IIS)...

      Constraints           Bounds       Runtime
     Min       Max       Min      Max
------------------------------------------------
        0     5665         0     2271         0s
      270      774         0        4         5s
      548      758         0        4        10s
      741      741         3        3        14s

IIS computed: 741 constraints, 3 bounds
IIS runtime: 13.97 seconds
Warning: linear constraint 0 and linear constraint 1 have the same name "link_ubd"
